
% Número de LINACs
m = 2;

% Capacidad diaria de cada LINAC (en intervalos de 15 minutos)
disponible = [| 1, 2, 2, 3, 4, 2, 2,   5, 8, 8, 8, 8, 10, 10,   48, 48, 48, 48, 48, 48, 48
              | 1, 2, 1, 3, 4, 2, 3,   4, 9, 8, 9, 9, 9, 8,     48, 48, 48, 48, 48, 48, 48 |];

% Número de nuevos pacientes
paciente = 2;

% Día laborable en que se hizo la solicitud (1=lunes, 5=viernes)
solicitud = [2, 4];

% Número de sesiones por paciente
sesion = 3;

% Duración de cada sesión (en múltiplos de 15 minutos)
duracion = 
 [| 2, 2, 2
  | 2, 3, 2 |];

% Número de días de separación ideal entre sesiones
separacion = array2d(1..paciente, 2..sesion, 
  [ 3, 2,
    2, 3]);
